NAME: eil101_68_33_3
COMMENT: 101-city problem (Christofides/Eilon). FACILITY = 1, USER = 0
TYPE: TSP
DIMENSION: 101
EDGE_WEIGHT_TYPE: EUC_2D
NODE_COORD_SECTION:
1 41 49 1
2 35 17 1
3 55 45 1
4 55 20 1
5 15 30 0
6 25 30 1
7 20 50 0
8 10 43 0
9 55 60 0
10 30 60 1
11 20 65 0
12 50 35 0
13 30 25 1
14 15 10 1
15 30 5 0
16 10 20 1
17 5 30 0
18 20 40 0
19 15 60 0
20 45 65 0
21 45 20 0
22 45 10 1
23 55 5 0
24 65 35 1
25 65 20 0
26 45 30 1
27 35 40 0
28 41 37 0
29 64 42 1
30 40 60 0
31 31 52 0
32 35 69 0
33 53 52 0
34 65 55 0
35 63 65 1
36 2 60 0
37 20 20 1
38 5 5 1
39 60 12 1
40 40 25 0
41 42 7 0
42 24 12 1
43 23 3 1
44 11 14 1
45 6 38 1
46 2 48 0
47 8 56 0
48 13 52 0
49 6 68 0
50 47 47 0
51 49 58 0
52 27 43 0
53 37 31 0
54 57 29 0
55 63 23 0
56 53 12 1
57 32 12 1
58 36 26 0
59 21 24 0
60 17 34 0
61 12 24 0
62 24 58 0
63 27 69 0
64 15 77 1
65 62 77 0
66 49 73 1
67 67 5 0
68 56 39 0
69 37 47 0
70 37 56 0
71 57 68 0
72 47 16 1
73 44 17 0
74 46 13 1
75 49 11 0
76 49 42 0
77 53 43 0
78 61 52 0
79 57 48 0
80 56 37 0
81 55 54 0
82 15 47 0
83 14 37 0
84 11 31 1
85 16 22 1
86 4 18 1
87 28 18 0
88 26 52 1
89 26 35 0
90 31 67 1
91 15 19 0
92 22 22 0
93 18 24 0
94 26 27 0
95 25 24 1
96 22 27 0
97 25 21 0
98 19 21 0
99 20 26 0
100 18 18 0
101 35 35 0
EOF